41
1000
199	3
198	1
197	1
196	5
195	3
192	2
191	1
190	5
189	1
188	1
187	2
185	3
183	2
182	2
181	2
180	2
179	3
178	1
177	2
176	3
175	4
174	2
172	3
171	4
170	3
169	3
168	1
167	1
166	4
165	2
164	5
163	3
162	2
160	1
159	2
158	2
157	2
156	4
155	3
153	2
151	2
